rect_size = array1d(1..1,
    [|3,11|11,3|3,13|13,3|2,9|9,2|2,7|7,2|3,9|9,3|3,7|7,3|2,11|11,2|2,13|13,2|4,11|11,4|4,13|13,4|5,3|3,5|2,11|11,2|2,2|2,2|3,11|11,3|3,2|2,3|4,5|5,4|4,6|6,4|2,12|12,2|2,1|1,2|5,3|3,5|5,13|13,5|4,12|12,4|4,1|1,4|2,5|5,2|2,6|6,2|]);

rect_offset = array1d(1..1, [|0,0 |0,0 |0,0 |0,0 |0,0 |0,0 |0,0 |0,0 |0,0 |0,0 |0,0
    |0,0 |0,0 |0,0 |0,0 |0,0 |0,0 |0,0 |0,0 |0,0 |0,0 |0,0 |0,0 |0,0
    |0,0 ||0,0 |0,0 |0,0 |0,0 |0,0 |0,0 |0,0 |0,0 |0,0 |0,0 |0,0 |0,0
    |0,0 |0,0 |0,0 |0,0 |0,0 |0,0 |0,0 |0,0 |0,0 |0,0 |0,0 |0,0 |0,0
    |]);

shape = array1d(1..50, [{1}, {2}, {3}, {4}, {5}, {6}, {7}, {8}, {9}, {10},
    {11}, {12}, {13}, {14}, {15}, {16}, {17}, {18}, {19}, {20}, {21},
    {22}, {23}, {24}, {25}, {26}, {27}, {28}, {29}, {30}, {31}, {32},
    {33}, {34}, {35}, {36}, {37}, {38}, {39}, {40}, {41}, {42}, {43},
    {44}, {45}, {46}, {47}, {48}, {49}, {50}]);

valid_shapes = array1d(1..25, [{1,2}, {3,4}, {5,6}, {7,8}, {9,10}, {11,12}, {13,14},
    {15,16}, {17,18}, {19,20}, {21,22}, {23,24}, {25,26}, {27,28},
    {29,30}, {31,32}, {33,34}, {35,36}, {37,38}, {39,40}, {41,42},
    {43,44}, {45,46}, {47,48}, {49,50}]);

w = 15;

n = 25;

